\ENCODING=ISO-8859-1
\Problem name: IloCplex

Maximize
 obj: 511 vnp1 - 29 (π,ρ)0↑e1 - 22 (π,ρ)1↑e1
      - 48 (π,ρ)2↑e1 - 50 (π,ρ)3↑e1
      - 38 (π,ρ)4↑e1 - 38 (π,ρ)5↑e1
      - 31 (π,ρ)6↑e1 - 25 (π,ρ)7↑e1
      - 31 (π,ρ)8↑e1 - 62 (π,ρ)9↑e1
      - 50 (π,ρ)10↑e1 - 54 (π,ρ)11↑e1
      - 42 (π,ρ)12↑e1 - 36 (π,ρ)13↑e1
      - 46 (π,ρ)14↑e1 - 16 (π,ρ)15↑e2
      - 38 (π,ρ)16↑e2 - 50 (π,ρ)17↑e2
      - 28 (π,ρ)18↑e2 - 16 (π,ρ)19↑e2
      - 13 (π,ρ)20↑e2 - 58 (π,ρ)21↑e2
      - 58 (π,ρ)22↑e2 - 46 (π,ρ)23↑e2
      - 36 (π,ρ)24↑e2 - 50 (π,ρ)25↑e2
      - 49 (π,ρ)26↑e2 - 50 (π,ρ)27↑e2
      - 52 (π,ρ)28↑e2 - 52 (π,ρ)29↑e2
      - 37 (π,ρ)30↑e3 - 28 (π,ρ)31↑e3
      - 27 (π,ρ)32↑e3 - 43 (π,ρ)33↑e3
      - 39 (π,ρ)34↑e3 - 70 (π,ρ)35↑e3
      - 26 (π,ρ)36↑e3 - 53 (π,ρ)37↑e3
      - 26 (π,ρ)38↑e3 - 44 (π,ρ)39↑e3
      - 44 (π,ρ)40↑e3 - 44 (π,ρ)41↑e3
      - 30 (π,ρ)42↑e3 - 30 (π,ρ)43↑e3
      - 40 (π,ρ)44↑e3 + 498 vnp2 - 278 (π,ρ)45↑e4
      - 430 (π,ρ)46↑e4 - 312 (π,ρ)47↑e4
      - 290 (π,ρ)48↑e4 - 306 (π,ρ)49↑e4
      - 304 (π,ρ)50↑e4 - 295 (π,ρ)51↑e4
      - 324 (π,ρ)52↑e4 - 255 (π,ρ)53↑e4
      - 325 (π,ρ)54↑e4 - 225 (π,ρ)55↑e4
      - 225 (π,ρ)56↑e4 - 325 (π,ρ)57↑e4
      - 310 (π,ρ)58↑e4 - 343 (π,ρ)59↑e4
      - 28 (π,ρ)60↑e5 - 20 (π,ρ)61↑e6
      - 20 (π,ρ)62↑e6 - 30 (π,ρ)63↑e6
      - 16 (π,ρ)64↑e6 - 16 (π,ρ)65↑e6
      - 26 (π,ρ)66↑e6 - 19 (π,ρ)67↑e6
      - 38 (π,ρ)68↑e6 - 29 (π,ρ)69↑e6
      - 44 (π,ρ)70↑e6 - 34 (π,ρ)71↑e6
      - 44 (π,ρ)72↑e6 - 35 (π,ρ)73↑e6
      - 59 (π,ρ)74↑e6 - 50 (π,ρ)75↑e6
      - 31 (π,ρ)76↑e7 - 58 (π,ρ)77↑e7
      - 16 (π,ρ)78↑e7 - 44 (π,ρ)79↑e7
      - 34 (π,ρ)80↑e7 - 44 (π,ρ)81↑e7
      - 47 (π,ρ)82↑e7 - 37 (π,ρ)83↑e7
      - 37 (π,ρ)84↑e7 - 35 (π,ρ)85↑e7
      - 45 (π,ρ)86↑e7 - 47 (π,ρ)87↑e7
      - 31 (π,ρ)88↑e7 - 26 (π,ρ)89↑e7
      - 58 (π,ρ)90↑e7
Subject To
 _EmbdConstr_vnp1e1#0:   vnp1 - (π,ρ)0↑e1 - (π,ρ)1↑e1
                         - (π,ρ)2↑e1 - (π,ρ)3↑e1
                         - (π,ρ)4↑e1 - (π,ρ)5↑e1
                         - (π,ρ)6↑e1 - (π,ρ)7↑e1
                         - (π,ρ)8↑e1 - (π,ρ)9↑e1
                         - (π,ρ)10↑e1 - (π,ρ)11↑e1
                         - (π,ρ)12↑e1 - (π,ρ)13↑e1
                         - (π,ρ)14↑e1  = 0
 _EmbdConstr_vnp1e2#1:   vnp1 - (π,ρ)15↑e2 - (π,ρ)16↑e2
                         - (π,ρ)17↑e2 - (π,ρ)18↑e2
                         - (π,ρ)19↑e2 - (π,ρ)20↑e2
                         - (π,ρ)21↑e2 - (π,ρ)22↑e2
                         - (π,ρ)23↑e2 - (π,ρ)24↑e2
                         - (π,ρ)25↑e2 - (π,ρ)26↑e2
                         - (π,ρ)27↑e2 - (π,ρ)28↑e2
                         - (π,ρ)29↑e2  = 0
 _EmbdConstr_vnp1e3#2:   vnp1 - (π,ρ)30↑e3 - (π,ρ)31↑e3
                         - (π,ρ)32↑e3 - (π,ρ)33↑e3
                         - (π,ρ)34↑e3 - (π,ρ)35↑e3
                         - (π,ρ)36↑e3 - (π,ρ)37↑e3
                         - (π,ρ)38↑e3 - (π,ρ)39↑e3
                         - (π,ρ)40↑e3 - (π,ρ)41↑e3
                         - (π,ρ)42↑e3 - (π,ρ)43↑e3
                         - (π,ρ)44↑e3  = 0
 _EmbdConstr_vnp2e4#3:   vnp2 - (π,ρ)45↑e4 - (π,ρ)46↑e4
                         - (π,ρ)47↑e4 - (π,ρ)48↑e4
                         - (π,ρ)49↑e4 - (π,ρ)50↑e4
                         - (π,ρ)51↑e4 - (π,ρ)52↑e4
                         - (π,ρ)53↑e4 - (π,ρ)54↑e4
                         - (π,ρ)55↑e4 - (π,ρ)56↑e4
                         - (π,ρ)57↑e4 - (π,ρ)58↑e4
                         - (π,ρ)59↑e4  = 0
 _EmbdConstr_vnp2e5#4:   vnp2 - (π,ρ)60↑e5  = 0
 _EmbdConstr_vnp2e6#5:   vnp2 - (π,ρ)61↑e6 - (π,ρ)62↑e6
                         - (π,ρ)63↑e6 - (π,ρ)64↑e6
                         - (π,ρ)65↑e6 - (π,ρ)66↑e6
                         - (π,ρ)67↑e6 - (π,ρ)68↑e6
                         - (π,ρ)69↑e6 - (π,ρ)70↑e6
                         - (π,ρ)71↑e6 - (π,ρ)72↑e6
                         - (π,ρ)73↑e6 - (π,ρ)74↑e6
                         - (π,ρ)75↑e6  = 0
 _EmbdConstr_vnp2e7#6:   vnp2 - (π,ρ)76↑e7 - (π,ρ)77↑e7
                         - (π,ρ)78↑e7 - (π,ρ)79↑e7
                         - (π,ρ)80↑e7 - (π,ρ)81↑e7
                         - (π,ρ)82↑e7 - (π,ρ)83↑e7
                         - (π,ρ)84↑e7 - (π,ρ)85↑e7
                         - (π,ρ)86↑e7 - (π,ρ)87↑e7
                         - (π,ρ)88↑e7 - (π,ρ)89↑e7
                         - (π,ρ)90↑e7  = 0
 BwCapConstr_slink1#7:   (π,ρ)2↑e1 + (π,ρ)9↑e1
                         + (π,ρ)10↑e1 + (π,ρ)11↑e1 <= 1
 BwCapConstr_slink2#8:   (π,ρ)2↑e1 + (π,ρ)9↑e1
                         + (π,ρ)10↑e1 + (π,ρ)11↑e1 <= 1
 BwCapConstr_slink3#9:   (π,ρ)42↑e3 + (π,ρ)43↑e3
                         + (π,ρ)44↑e3 + (π,ρ)61↑e6
                         + (π,ρ)62↑e6 + (π,ρ)63↑e6
                         + (π,ρ)66↑e6 + (π,ρ)75↑e6 <= 6
 BwCapConstr_slink5#10:  (π,ρ)0↑e1 + (π,ρ)3↑e1
                         + (π,ρ)4↑e1 + (π,ρ)5↑e1
                         + (π,ρ)6↑e1 + (π,ρ)7↑e1
                         + (π,ρ)12↑e1 + (π,ρ)14↑e1
                         + (π,ρ)69↑e6 <= 0
 BwCapConstr_slink6#11:  (π,ρ)8↑e1 + 5 (π,ρ)57↑e4
                         + 5 (π,ρ)58↑e4 + 5 (π,ρ)59↑e4
                         <= 11
 BwCapConstr_slink7#12:  (π,ρ)0↑e1 + (π,ρ)1↑e1
                         + (π,ρ)2↑e1 + (π,ρ)4↑e1
                         + (π,ρ)5↑e1 + (π,ρ)8↑e1
                         + (π,ρ)10↑e1 + (π,ρ)11↑e1
                         + (π,ρ)13↑e1 + (π,ρ)35↑e3
                         + (π,ρ)36↑e3 + (π,ρ)37↑e3
                         + (π,ρ)38↑e3 + (π,ρ)39↑e3
                         + (π,ρ)40↑e3 + (π,ρ)41↑e3
                         + (π,ρ)61↑e6 + (π,ρ)62↑e6
                         + (π,ρ)63↑e6 + (π,ρ)67↑e6
                         + (π,ρ)68↑e6 + (π,ρ)69↑e6
                         + (π,ρ)70↑e6 + (π,ρ)73↑e6
                         + (π,ρ)82↑e7 + (π,ρ)83↑e7
                         + (π,ρ)84↑e7 <= 5
 BwCapConstr_slink8#13:  (π,ρ)3↑e1 + (π,ρ)6↑e1
                         + (π,ρ)7↑e1 + (π,ρ)8↑e1
                         + (π,ρ)9↑e1 + (π,ρ)12↑e1
                         + (π,ρ)13↑e1 + (π,ρ)14↑e1
                         + (π,ρ)30↑e3 + (π,ρ)31↑e3
                         + (π,ρ)32↑e3 + (π,ρ)33↑e3
                         + (π,ρ)34↑e3 + (π,ρ)35↑e3
                         + (π,ρ)37↑e3 + (π,ρ)67↑e6
                         + (π,ρ)68↑e6 + (π,ρ)69↑e6
                         + (π,ρ)82↑e7 + (π,ρ)83↑e7
                         + (π,ρ)84↑e7 <= 6
 BwCapConstr_slink9#14:  (π,ρ)11↑e1 + (π,ρ)12↑e1
                         + (π,ρ)13↑e1 + (π,ρ)14↑e1
                         + (π,ρ)33↑e3 + (π,ρ)35↑e3
                         + (π,ρ)39↑e3 + (π,ρ)40↑e3
                         + (π,ρ)41↑e3 + (π,ρ)45↑e4
                         + 5 (π,ρ)46↑e4 + 5 (π,ρ)47↑e4
                         + 5 (π,ρ)48↑e4 + 5 (π,ρ)49↑e4
                         + 5 (π,ρ)50↑e4 + 5 (π,ρ)51↑e4
                         + 5 (π,ρ)52↑e4 + 5 (π,ρ)53↑e4
                         + 5 (π,ρ)54↑e4 + 5 (π,ρ)55↑e4
                         + 5 (π,ρ)56↑e4 + 5 (π,ρ)57↑e4
                         + (π,ρ)59↑e4 + (π,ρ)64↑e6
                         + (π,ρ)65↑e6 + (π,ρ)66↑e6
                         + (π,ρ)68↑e6 + (π,ρ)70↑e6
                         + (π,ρ)71↑e6 + (π,ρ)72↑e6
                         + (π,ρ)74↑e6 + (π,ρ)75↑e6
                         + (π,ρ)77↑e7 + (π,ρ)79↑e7
                         + (π,ρ)80↑e7 + (π,ρ)81↑e7
                         + (π,ρ)85↑e7 + (π,ρ)86↑e7
                         + (π,ρ)87↑e7 + (π,ρ)90↑e7 <= 13
 BwCapConstr_slink10#15: (π,ρ)34↑e3 + (π,ρ)42↑e3
                         + (π,ρ)43↑e3 + (π,ρ)44↑e3
                         + (π,ρ)63↑e6 + (π,ρ)64↑e6
                         + (π,ρ)65↑e6 + (π,ρ)66↑e6
                         + (π,ρ)67↑e6 + (π,ρ)68↑e6
                         + (π,ρ)69↑e6 + (π,ρ)72↑e6
                         + (π,ρ)73↑e6 + (π,ρ)74↑e6
                         + (π,ρ)75↑e6 <= 9
 BwCapConstr_slink11#16: (π,ρ)70↑e6 + (π,ρ)71↑e6
                         + (π,ρ)72↑e6 + (π,ρ)74↑e6 <= 11
 BwCapConstr_slink12#17: (π,ρ)0↑e1 + (π,ρ)1↑e1
                         + (π,ρ)2↑e1 + (π,ρ)4↑e1
                         + (π,ρ)10↑e1 + (π,ρ)12↑e1
                         + (π,ρ)13↑e1 + (π,ρ)14↑e1
                         + (π,ρ)30↑e3 + (π,ρ)36↑e3
                         + (π,ρ)37↑e3 + (π,ρ)38↑e3
                         + (π,ρ)44↑e3 + 5 (π,ρ)45↑e4
                         + 5 (π,ρ)46↑e4 + 5 (π,ρ)47↑e4
                         + 5 (π,ρ)48↑e4 + 5 (π,ρ)49↑e4
                         + 5 (π,ρ)50↑e4 + (π,ρ)51↑e4
                         + 4 (π,ρ)52↑e4 + 5 (π,ρ)54↑e4
                         + 5 (π,ρ)55↑e4 + 5 (π,ρ)56↑e4
                         + (π,ρ)58↑e4 + (π,ρ)73↑e6
                         + (π,ρ)74↑e6 + (π,ρ)75↑e6
                         + (π,ρ)76↑e7 + (π,ρ)77↑e7
                         + (π,ρ)78↑e7 <= 5
 BwCapConstr_slink13#18: (π,ρ)53↑e4 + (π,ρ)88↑e7
                         + (π,ρ)89↑e7 + (π,ρ)90↑e7 <= 2
 BwCapConstr_slink14#19: <= 5
 BwCapConstr_slink15#20: (π,ρ)0↑e1 + (π,ρ)2↑e1
                         + (π,ρ)3↑e1 + (π,ρ)4↑e1
                         + (π,ρ)5↑e1 + (π,ρ)6↑e1
                         + (π,ρ)9↑e1 + (π,ρ)10↑e1
                         + (π,ρ)11↑e1 + (π,ρ)12↑e1
                         + 5 (π,ρ)57↑e4 + 5 (π,ρ)58↑e4
                         + 5 (π,ρ)59↑e4 <= 2
 BwCapConstr_slink16#21: (π,ρ)14↑e1 <= 1
 BwCapConstr_slink18#22: (π,ρ)3↑e1 + (π,ρ)4↑e1
                         + (π,ρ)5↑e1 + (π,ρ)9↑e1
                         + (π,ρ)10↑e1 + (π,ρ)11↑e1
                         + 2 (π,ρ)21↑e2 + 2 (π,ρ)22↑e2
                         + 2 (π,ρ)23↑e2 <= 8
 BwCapConstr_slink19#23: (π,ρ)0↑e1 + (π,ρ)1↑e1
                         + (π,ρ)2↑e1 + (π,ρ)3↑e1
                         + (π,ρ)6↑e1 + (π,ρ)7↑e1
                         + (π,ρ)8↑e1 + (π,ρ)9↑e1
                         + (π,ρ)12↑e1 + (π,ρ)13↑e1
                         + (π,ρ)14↑e1 + 2 (π,ρ)15↑e2
                         + 2 (π,ρ)16↑e2 + 2 (π,ρ)17↑e2
                         + 2 (π,ρ)18↑e2 + 2 (π,ρ)21↑e2
                         + 2 (π,ρ)27↑e2 + 2 (π,ρ)28↑e2
                         + 2 (π,ρ)29↑e2 + 2 (π,ρ)50↑e4
                         <= 11
 BwCapConstr_slink20#24: (π,ρ)88↑e7 + (π,ρ)89↑e7
                         + (π,ρ)90↑e7 <= 4
 BwCapConstr_slink21#25: (π,ρ)5↑e1 + 2 (π,ρ)27↑e2
                         + 2 (π,ρ)28↑e2 + 2 (π,ρ)29↑e2
                         + 5 (π,ρ)45↑e4 + 5 (π,ρ)46↑e4
                         + 5 (π,ρ)47↑e4 <= 6
 BwCapConstr_slink22#26: (π,ρ)3↑e1 + (π,ρ)6↑e1
                         + (π,ρ)7↑e1 + (π,ρ)8↑e1
                         + (π,ρ)9↑e1 + (π,ρ)25↑e2
                         + (π,ρ)31↑e3 + (π,ρ)33↑e3
                         + (π,ρ)34↑e3 + (π,ρ)35↑e3
                         + (π,ρ)73↑e6 + (π,ρ)74↑e6
                         + (π,ρ)75↑e6 + (π,ρ)85↑e7
                         + (π,ρ)86↑e7 + (π,ρ)87↑e7 <= 4
 BwCapConstr_slink23#27: 2 (π,ρ)15↑e2 + 2 (π,ρ)16↑e2
                         + 2 (π,ρ)17↑e2 + 2 (π,ρ)18↑e2
                         + 2 (π,ρ)21↑e2 + 2 (π,ρ)22↑e2
                         + 2 (π,ρ)24↑e2 + (π,ρ)33↑e3
                         + (π,ρ)34↑e3 + (π,ρ)35↑e3
                         + (π,ρ)36↑e3 + (π,ρ)37↑e3
                         + (π,ρ)38↑e3 + (π,ρ)49↑e4
                         + 2 (π,ρ)51↑e4 + 5 (π,ρ)54↑e4
                         + 5 (π,ρ)55↑e4 + 5 (π,ρ)56↑e4
                         + 2 (π,ρ)58↑e4 + (π,ρ)76↑e7
                         + (π,ρ)77↑e7 + (π,ρ)78↑e7
                         + (π,ρ)79↑e7 + (π,ρ)82↑e7
                         + (π,ρ)85↑e7 + (π,ρ)86↑e7
                         + (π,ρ)87↑e7 + (π,ρ)88↑e7
                         + (π,ρ)89↑e7 + (π,ρ)90↑e7 <= 6
 BwCapConstr_slink24#28: 2 (π,ρ)19↑e2 + 2 (π,ρ)25↑e2
                         + (π,ρ)30↑e3 + (π,ρ)31↑e3
                         + (π,ρ)32↑e3 + (π,ρ)34↑e3
                         + (π,ρ)39↑e3 + (π,ρ)40↑e3
                         + (π,ρ)41↑e3 + (π,ρ)42↑e3
                         + (π,ρ)43↑e3 + (π,ρ)44↑e3
                         + 5 (π,ρ)48↑e4 + 5 (π,ρ)49↑e4
                         + 5 (π,ρ)50↑e4 + 5 (π,ρ)59↑e4
                         + (π,ρ)76↑e7 + (π,ρ)79↑e7
                         + (π,ρ)80↑e7 + (π,ρ)81↑e7
                         + (π,ρ)82↑e7 + (π,ρ)83↑e7
                         + (π,ρ)84↑e7 + (π,ρ)88↑e7
                         + (π,ρ)89↑e7 <= 15
 BwCapConstr_slink25#29: (π,ρ)35↑e3 + (π,ρ)37↑e3
                         + 5 (π,ρ)46↑e4 + 5 (π,ρ)51↑e4
                         + 5 (π,ρ)52↑e4 + 5 (π,ρ)53↑e4
                         + 5 (π,ρ)54↑e4 + (π,ρ)77↑e7
                         + (π,ρ)90↑e7 <= 10
 BwCapConstr_slink26#30: 3 (π,ρ)47↑e4 + 5 (π,ρ)56↑e4
                         + (π,ρ)68↑e6 + (π,ρ)70↑e6
                         + (π,ρ)71↑e6 + (π,ρ)72↑e6
                         + (π,ρ)74↑e6 <= 1
 BwCapConstr_slink27#31: <= 13
 BwCapConstr_slink28#32: (π,ρ)77↑e7 + (π,ρ)90↑e7 <= 15
 BwCapConstr_slink29#33: (π,ρ)20↑e2 + 2 (π,ρ)23↑e2
                         + 2 (π,ρ)24↑e2 + 2 (π,ρ)25↑e2
                         + 2 (π,ρ)26↑e2 + 2 (π,ρ)28↑e2
                         + 2 (π,ρ)29↑e2 + 5 (π,ρ)45↑e4
                         + 5 (π,ρ)48↑e4 + 5 (π,ρ)49↑e4
                         + 5 (π,ρ)50↑e4 + 5 (π,ρ)51↑e4
                         + 5 (π,ρ)54↑e4 + 5 (π,ρ)55↑e4
                         + 5 (π,ρ)56↑e4 + 5 (π,ρ)58↑e4
                         + 2 (π,ρ)60↑e5 <= 6
 BwCapConstr_slink30#34: 2 (π,ρ)17↑e2 + 2 (π,ρ)18↑e2
                         + 2 (π,ρ)19↑e2 + 2 (π,ρ)20↑e2
                         + 2 (π,ρ)21↑e2 + 2 (π,ρ)22↑e2
                         + 2 (π,ρ)23↑e2 + (π,ρ)26↑e2
                         + 2 (π,ρ)27↑e2 + 2 (π,ρ)28↑e2
                         + 2 (π,ρ)29↑e2 + 2 (π,ρ)49↑e4
                         + 2 (π,ρ)60↑e5 + (π,ρ)81↑e7
                         + (π,ρ)86↑e7 + (π,ρ)87↑e7 <= 8
 BwCapConstr_slink31#35: 2 (π,ρ)16↑e2 + 2 (π,ρ)24↑e2
                         + 2 (π,ρ)25↑e2 + 2 (π,ρ)26↑e2
                         + 5 (π,ρ)45↑e4 + 5 (π,ρ)46↑e4
                         + 5 (π,ρ)47↑e4 + 5 (π,ρ)48↑e4
                         + 5 (π,ρ)49↑e4 + 5 (π,ρ)50↑e4
                         + 5 (π,ρ)52↑e4 + 5 (π,ρ)55↑e4
                         + 5 (π,ρ)57↑e4 + 5 (π,ρ)58↑e4
                         + 5 (π,ρ)59↑e4 <= 13
 BwCapConstr_slink32#36: 2 (π,ρ)18↑e2 + 2 (π,ρ)19↑e2
                         + 2 (π,ρ)20↑e2 + 2 (π,ρ)22↑e2
                         + 2 (π,ρ)24↑e2 + 2 (π,ρ)25↑e2
                         + 2 (π,ρ)26↑e2 + 5 (π,ρ)50↑e4
                         + (π,ρ)87↑e7 <= 17
 BwCapConstr_slink33#37: 2 (π,ρ)17↑e2 + 2 (π,ρ)21↑e2
                         + 2 (π,ρ)22↑e2 + 2 (π,ρ)23↑e2
                         + (π,ρ)26↑e2 + 5 (π,ρ)57↑e4
                         + 5 (π,ρ)58↑e4 + 5 (π,ρ)59↑e4
                         <= 2
 BwCapConstr_slink34#38: (π,ρ)53↑e4 <= 1
 BwCapConstr_slink36#39: <= 11
 BwCapConstr_slink37#40: 5 (π,ρ)46↑e4 + 5 (π,ρ)51↑e4
                         + 5 (π,ρ)52↑e4 + 5 (π,ρ)53↑e4
                         + 5 (π,ρ)54↑e4 <= 14
 BwCapConstr_slink39#41: 5 (π,ρ)47↑e4 + 5 (π,ρ)56↑e4
                         <= 15
 BwCapConstr_slink41#42: <= 14
Bounds
 0 <= vnp1 <= 1
 0 <= (π,ρ)0↑e1 <= 1
 0 <= (π,ρ)1↑e1 <= 1
 0 <= (π,ρ)2↑e1 <= 1
 0 <= (π,ρ)3↑e1 <= 1
 0 <= (π,ρ)4↑e1 <= 1
 0 <= (π,ρ)5↑e1 <= 1
 0 <= (π,ρ)6↑e1 <= 1
 0 <= (π,ρ)7↑e1 <= 1
 0 <= (π,ρ)8↑e1 <= 1
 0 <= (π,ρ)9↑e1 <= 1
 0 <= (π,ρ)10↑e1 <= 1
 0 <= (π,ρ)11↑e1 <= 1
 0 <= (π,ρ)12↑e1 <= 1
 0 <= (π,ρ)13↑e1 <= 1
 0 <= (π,ρ)14↑e1 <= 1
 0 <= (π,ρ)15↑e2 <= 1
 0 <= (π,ρ)16↑e2 <= 1
 0 <= (π,ρ)17↑e2 <= 1
 0 <= (π,ρ)18↑e2 <= 1
 0 <= (π,ρ)19↑e2 <= 1
 0 <= (π,ρ)20↑e2 <= 1
 0 <= (π,ρ)21↑e2 <= 1
 0 <= (π,ρ)22↑e2 <= 1
 0 <= (π,ρ)23↑e2 <= 1
 0 <= (π,ρ)24↑e2 <= 1
 0 <= (π,ρ)25↑e2 <= 1
 0 <= (π,ρ)26↑e2 <= 1
 0 <= (π,ρ)27↑e2 <= 1
 0 <= (π,ρ)28↑e2 <= 1
 0 <= (π,ρ)29↑e2 <= 1
 0 <= (π,ρ)30↑e3 <= 1
 0 <= (π,ρ)31↑e3 <= 1
 0 <= (π,ρ)32↑e3 <= 1
 0 <= (π,ρ)33↑e3 <= 1
 0 <= (π,ρ)34↑e3 <= 1
 0 <= (π,ρ)35↑e3 <= 1
 0 <= (π,ρ)36↑e3 <= 1
 0 <= (π,ρ)37↑e3 <= 1
 0 <= (π,ρ)38↑e3 <= 1
 0 <= (π,ρ)39↑e3 <= 1
 0 <= (π,ρ)40↑e3 <= 1
 0 <= (π,ρ)41↑e3 <= 1
 0 <= (π,ρ)42↑e3 <= 1
 0 <= (π,ρ)43↑e3 <= 1
 0 <= (π,ρ)44↑e3 <= 1
 0 <= vnp2 <= 1
 0 <= (π,ρ)45↑e4 <= 1
 0 <= (π,ρ)46↑e4 <= 1
 0 <= (π,ρ)47↑e4 <= 1
 0 <= (π,ρ)48↑e4 <= 1
 0 <= (π,ρ)49↑e4 <= 1
 0 <= (π,ρ)50↑e4 <= 1
 0 <= (π,ρ)51↑e4 <= 1
 0 <= (π,ρ)52↑e4 <= 1
 0 <= (π,ρ)53↑e4 <= 1
 0 <= (π,ρ)54↑e4 <= 1
 0 <= (π,ρ)55↑e4 <= 1
 0 <= (π,ρ)56↑e4 <= 1
 0 <= (π,ρ)57↑e4 <= 1
 0 <= (π,ρ)58↑e4 <= 1
 0 <= (π,ρ)59↑e4 <= 1
 0 <= (π,ρ)60↑e5 <= 1
 0 <= (π,ρ)61↑e6 <= 1
 0 <= (π,ρ)62↑e6 <= 1
 0 <= (π,ρ)63↑e6 <= 1
 0 <= (π,ρ)64↑e6 <= 1
 0 <= (π,ρ)65↑e6 <= 1
 0 <= (π,ρ)66↑e6 <= 1
 0 <= (π,ρ)67↑e6 <= 1
 0 <= (π,ρ)68↑e6 <= 1
 0 <= (π,ρ)69↑e6 <= 1
 0 <= (π,ρ)70↑e6 <= 1
 0 <= (π,ρ)71↑e6 <= 1
 0 <= (π,ρ)72↑e6 <= 1
 0 <= (π,ρ)73↑e6 <= 1
 0 <= (π,ρ)74↑e6 <= 1
 0 <= (π,ρ)75↑e6 <= 1
 0 <= (π,ρ)76↑e7 <= 1
 0 <= (π,ρ)77↑e7 <= 1
 0 <= (π,ρ)78↑e7 <= 1
 0 <= (π,ρ)79↑e7 <= 1
 0 <= (π,ρ)80↑e7 <= 1
 0 <= (π,ρ)81↑e7 <= 1
 0 <= (π,ρ)82↑e7 <= 1
 0 <= (π,ρ)83↑e7 <= 1
 0 <= (π,ρ)84↑e7 <= 1
 0 <= (π,ρ)85↑e7 <= 1
 0 <= (π,ρ)86↑e7 <= 1
 0 <= (π,ρ)87↑e7 <= 1
 0 <= (π,ρ)88↑e7 <= 1
 0 <= (π,ρ)89↑e7 <= 1
 0 <= (π,ρ)90↑e7 <= 1
Binaries
 vnp1  (π,ρ)0↑e1  (π,ρ)1↑e1  (π,ρ)2↑e1 
 (π,ρ)3↑e1  (π,ρ)4↑e1  (π,ρ)5↑e1 
 (π,ρ)6↑e1  (π,ρ)7↑e1  (π,ρ)8↑e1 
 (π,ρ)9↑e1  (π,ρ)10↑e1  (π,ρ)11↑e1 
 (π,ρ)12↑e1  (π,ρ)13↑e1  (π,ρ)14↑e1 
 (π,ρ)15↑e2  (π,ρ)16↑e2  (π,ρ)17↑e2 
 (π,ρ)18↑e2  (π,ρ)19↑e2  (π,ρ)20↑e2 
 (π,ρ)21↑e2  (π,ρ)22↑e2  (π,ρ)23↑e2 
 (π,ρ)24↑e2  (π,ρ)25↑e2  (π,ρ)26↑e2 
 (π,ρ)27↑e2  (π,ρ)28↑e2  (π,ρ)29↑e2 
 (π,ρ)30↑e3  (π,ρ)31↑e3  (π,ρ)32↑e3 
 (π,ρ)33↑e3  (π,ρ)34↑e3  (π,ρ)35↑e3 
 (π,ρ)36↑e3  (π,ρ)37↑e3  (π,ρ)38↑e3 
 (π,ρ)39↑e3  (π,ρ)40↑e3  (π,ρ)41↑e3 
 (π,ρ)42↑e3  (π,ρ)43↑e3  (π,ρ)44↑e3  vnp2 
 (π,ρ)45↑e4  (π,ρ)46↑e4  (π,ρ)47↑e4 
 (π,ρ)48↑e4  (π,ρ)49↑e4  (π,ρ)50↑e4 
 (π,ρ)51↑e4  (π,ρ)52↑e4  (π,ρ)53↑e4 
 (π,ρ)54↑e4  (π,ρ)55↑e4  (π,ρ)56↑e4 
 (π,ρ)57↑e4  (π,ρ)58↑e4  (π,ρ)59↑e4 
 (π,ρ)60↑e5  (π,ρ)61↑e6  (π,ρ)62↑e6 
 (π,ρ)63↑e6  (π,ρ)64↑e6  (π,ρ)65↑e6 
 (π,ρ)66↑e6  (π,ρ)67↑e6  (π,ρ)68↑e6 
 (π,ρ)69↑e6  (π,ρ)70↑e6  (π,ρ)71↑e6 
 (π,ρ)72↑e6  (π,ρ)73↑e6  (π,ρ)74↑e6 
 (π,ρ)75↑e6  (π,ρ)76↑e7  (π,ρ)77↑e7 
 (π,ρ)78↑e7  (π,ρ)79↑e7  (π,ρ)80↑e7 
 (π,ρ)81↑e7  (π,ρ)82↑e7  (π,ρ)83↑e7 
 (π,ρ)84↑e7  (π,ρ)85↑e7  (π,ρ)86↑e7 
 (π,ρ)87↑e7  (π,ρ)88↑e7  (π,ρ)89↑e7 
 (π,ρ)90↑e7 
End
